20 20
14
3 3 8 17
3 4 14 16
3 5 17 15
3 6 14 10
3 7 17 8
3 8 17 0
3 9 11 11
3 10 14 0
3 11 11 0
3 17 8 0
4 3 0 17
4 9 4 11
4 11 4 0
4 17 0 0
% time elapsed: 0.10 s
% time elapsed: 0.10 s
%%%mzn-stat: initTime=0.000358
%%%mzn-stat: solveTime=0.011559
%%%mzn-stat: solutions=86
%%%mzn-stat: variables=29
%%%mzn-stat: propagators=19
%%%mzn-stat: propagations=17809
%%%mzn-stat: nodes=2549
%%%mzn-stat: failures=794
%%%mzn-stat: restarts=0
%%%mzn-stat: peakDepth=41
%%%mzn-stat-end
